lps/t_ID000M003J004_ZintFalse_minla_fav.lp
\ This file has been generated by DOcplex
\ ENCODING=ISO-8859-1
\Problem name: minla_fav

Minimize
 obj: cmax
Subject To
 c1: x_1_0 - x_0_0 >= 1
 c2: x_2_0 - x_1_0 >= 3
 c3: x_0_1 - x_1_1 >= 8
 c4: x_2_1 - x_0_1 >= 5
 c5: x_2_2 - x_0_2 >= 5
 c6: x_1_2 - x_2_2 >= 4
 c7: x_0_3 - x_2_3 >= 4
 c8: x_1_3 - x_0_3 >= 10
 c9: x_0_1 - x_0_0 - 66 z_0_0_1 - 5 z_0_0_2 - 10 z_0_0_3 + 5 s_0_2_0_1
     + 10 s_0_3_0_1 >= -65
 c10: x_0_0 - x_0_1 + 66 z_0_0_1 - 5 z_0_1_2 - 10 z_0_1_3 + 5 s_0_2_0_1
      + 10 s_0_3_0_1 >= 5
 c11: x_0_2 - x_0_0 - 66 z_0_0_2 - 10 z_0_0_3 - 5 s_0_1_0_2 + 10 s_0_3_0_2 >= 
      -65
 c12: x_0_0 - x_0_2 + 5 z_0_0_1 + 66 z_0_0_2 + 5 z_0_1_2 - 10 z_0_2_3
      - 5 s_0_1_0_2 + 10 s_0_3_0_2 >= 10
 c13: x_0_3 - x_0_0 - 66 z_0_0_3 - 5 s_0_1_0_3 - 5 s_0_2_0_3 >= -65
 c14: x_0_0 - x_0_3 + 5 z_0_0_1 + 5 z_0_0_2 + 66 z_0_0_3 + 5 z_0_1_3 + 5 z_0_2_3
      - 5 s_0_1_0_3 - 5 s_0_2_0_3 >= 20
 c15: x_0_2 - x_0_1 - z_0_0_2 - 66 z_0_1_2 - 10 z_0_1_3 + s_0_0_1_2
      + 10 s_0_3_1_2 >= -61
 c16: x_0_1 - x_0_2 - z_0_0_1 + 66 z_0_1_2 - 10 z_0_2_3 + s_0_0_1_2
      + 10 s_0_3_1_2 >= 5
 c17: x_0_3 - x_0_1 - z_0_0_3 - 66 z_0_1_3 + s_0_0_1_3 - 5 s_0_2_1_3 >= -61
 c18: x_0_1 - x_0_3 - z_0_0_1 + 5 z_0_1_2 + 66 z_0_1_3 + 5 z_0_2_3 + s_0_0_1_3
      - 5 s_0_2_1_3 >= 15
 c19: x_0_3 - x_0_2 - z_0_0_3 - 5 z_0_1_3 - 66 z_0_2_3 + s_0_0_2_3 + 5 s_0_1_2_3
       >= -61
 c20: x_0_2 - x_0_3 - z_0_0_2 - 5 z_0_1_2 + 66 z_0_2_3 + s_0_0_2_3 + 5 s_0_1_2_3
       >= 10
 c21: x_1_1 - x_1_0 - 66 z_1_0_1 - 8 z_1_0_2 - 6 z_1_0_3 + 8 s_1_2_0_1
      + 6 s_1_3_0_1 >= -63
 c22: x_1_0 - x_1_1 + 66 z_1_0_1 - 8 z_1_1_2 - 6 z_1_1_3 + 8 s_1_2_0_1
      + 6 s_1_3_0_1 >= 8
 c23: x_1_2 - x_1_0 - 66 z_1_0_2 - 6 z_1_0_3 - 8 s_1_1_0_2 + 6 s_1_3_0_2 >= -63
 c24: x_1_0 - x_1_2 + 8 z_1_0_1 + 66 z_1_0_2 + 8 z_1_1_2 - 6 z_1_2_3
      - 8 s_1_1_0_2 + 6 s_1_3_0_2 >= 16
 c25: x_1_3 - x_1_0 - 66 z_1_0_3 - 8 s_1_1_0_3 - 8 s_1_2_0_3 >= -63
 c26: x_1_0 - x_1_3 + 8 z_1_0_1 + 8 z_1_0_2 + 66 z_1_0_3 + 8 z_1_1_3 + 8 z_1_2_3
      - 8 s_1_1_0_3 - 8 s_1_2_0_3 >= 22
 c27: x_1_2 - x_1_1 - 3 z_1_0_2 - 66 z_1_1_2 - 6 z_1_1_3 + 3 s_1_0_1_2
      + 6 s_1_3_1_2 >= -58
 c28: x_1_1 - x_1_2 - 3 z_1_0_1 + 66 z_1_1_2 - 6 z_1_2_3 + 3 s_1_0_1_2
      + 6 s_1_3_1_2 >= 8
 c29: x_1_3 - x_1_1 - 3 z_1_0_3 - 66 z_1_1_3 + 3 s_1_0_1_3 - 8 s_1_2_1_3 >= -58
 c30: x_1_1 - x_1_3 - 3 z_1_0_1 + 8 z_1_1_2 + 66 z_1_1_3 + 8 z_1_2_3
      + 3 s_1_0_1_3 - 8 s_1_2_1_3 >= 14
 c31: x_1_3 - x_1_2 - 3 z_1_0_3 - 8 z_1_1_3 - 66 z_1_2_3 + 3 s_1_0_2_3
      + 8 s_1_1_2_3 >= -58
 c32: x_1_2 - x_1_3 - 3 z_1_0_2 - 8 z_1_1_2 + 66 z_1_2_3 + 3 s_1_0_2_3
      + 8 s_1_1_2_3 >= 6
 c33: x_2_1 - x_2_0 - 66 z_2_0_1 - 4 z_2_0_2 - 4 z_2_0_3 + 4 s_2_2_0_1
      + 4 s_2_3_0_1 >= -64
 c34: x_2_0 - x_2_1 + 66 z_2_0_1 - 4 z_2_1_2 - 4 z_2_1_3 + 4 s_2_2_0_1
      + 4 s_2_3_0_1 >= 10
 c35: x_2_2 - x_2_0 - 66 z_2_0_2 - 4 z_2_0_3 - 10 s_2_1_0_2 + 4 s_2_3_0_2 >= 
      -64
 c36: x_2_0 - x_2_2 + 10 z_2_0_1 + 66 z_2_0_2 + 10 z_2_1_2 - 4 z_2_2_3
      - 10 s_2_1_0_2 + 4 s_2_3_0_2 >= 14
 c37: x_2_3 - x_2_0 - 66 z_2_0_3 - 10 s_2_1_0_3 - 4 s_2_2_0_3 >= -64
 c38: x_2_0 - x_2_3 + 10 z_2_0_1 + 4 z_2_0_2 + 66 z_2_0_3 + 10 z_2_1_3
      + 4 z_2_2_3 - 10 s_2_1_0_3 - 4 s_2_2_0_3 >= 18
 c39: x_2_2 - x_2_1 - 2 z_2_0_2 - 66 z_2_1_2 - 4 z_2_1_3 + 2 s_2_0_1_2
      + 4 s_2_3_1_2 >= -56
 c40: x_2_1 - x_2_2 - 2 z_2_0_1 + 66 z_2_1_2 - 4 z_2_2_3 + 2 s_2_0_1_2
      + 4 s_2_3_1_2 >= 4
 c41: x_2_3 - x_2_1 - 2 z_2_0_3 - 66 z_2_1_3 + 2 s_2_0_1_3 - 4 s_2_2_1_3 >= -56
 c42: x_2_1 - x_2_3 - 2 z_2_0_1 + 4 z_2_1_2 + 66 z_2_1_3 + 4 z_2_2_3
      + 2 s_2_0_1_3 - 4 s_2_2_1_3 >= 8
 c43: x_2_3 - x_2_2 - 2 z_2_0_3 - 10 z_2_1_3 - 66 z_2_2_3 + 2 s_2_0_2_3
      + 10 s_2_1_2_3 >= -62
 c44: x_2_2 - x_2_3 - 2 z_2_0_2 - 10 z_2_1_2 + 66 z_2_2_3 + 2 s_2_0_2_3
      + 10 s_2_1_2_3 >= 4
 c45: s_0_2_0_1 - z_0_0_2 - z_0_1_2 >= -1
 c46: s_0_3_0_1 - z_0_0_3 - z_0_1_3 >= -1
 c47: s_0_1_0_2 - z_0_0_1 - z_0_1_2 >= -1
 c48: s_0_3_0_2 - z_0_0_3 - z_0_2_3 >= -1
 c49: s_0_1_0_3 - z_0_0_1 - z_0_1_3 >= -1
 c50: s_0_2_0_3 - z_0_0_2 - z_0_2_3 >= -1
 c51: s_0_0_1_2 - z_0_0_1 - z_0_0_2 >= -1
 c52: s_0_3_1_2 - z_0_1_3 - z_0_2_3 >= -1
 c53: s_0_0_1_3 - z_0_0_1 - z_0_0_3 >= -1
 c54: s_0_2_1_3 - z_0_1_2 - z_0_2_3 >= -1
 c55: s_0_0_2_3 - z_0_0_2 - z_0_0_3 >= -1
 c56: s_0_1_2_3 - z_0_1_2 - z_0_1_3 >= -1
 c57: s_1_2_0_1 - z_1_0_2 - z_1_1_2 >= -1
 c58: s_1_3_0_1 - z_1_0_3 - z_1_1_3 >= -1
 c59: s_1_1_0_2 - z_1_0_1 - z_1_1_2 >= -1
 c60: s_1_3_0_2 - z_1_0_3 - z_1_2_3 >= -1
 c61: s_1_1_0_3 - z_1_0_1 - z_1_1_3 >= -1
 c62: s_1_2_0_3 - z_1_0_2 - z_1_2_3 >= -1
 c63: s_1_0_1_2 - z_1_0_1 - z_1_0_2 >= -1
 c64: s_1_3_1_2 - z_1_1_3 - z_1_2_3 >= -1
 c65: s_1_0_1_3 - z_1_0_1 - z_1_0_3 >= -1
 c66: s_1_2_1_3 - z_1_1_2 - z_1_2_3 >= -1
 c67: s_1_0_2_3 - z_1_0_2 - z_1_0_3 >= -1
 c68: s_1_1_2_3 - z_1_1_2 - z_1_1_3 >= -1
 c69: s_2_2_0_1 - z_2_0_2 - z_2_1_2 >= -1
 c70: s_2_3_0_1 - z_2_0_3 - z_2_1_3 >= -1
 c71: s_2_1_0_2 - z_2_0_1 - z_2_1_2 >= -1
 c72: s_2_3_0_2 - z_2_0_3 - z_2_2_3 >= -1
 c73: s_2_1_0_3 - z_2_0_1 - z_2_1_3 >= -1
 c74: s_2_2_0_3 - z_2_0_2 - z_2_2_3 >= -1
 c75: s_2_0_1_2 - z_2_0_1 - z_2_0_2 >= -1
 c76: s_2_3_1_2 - z_2_1_3 - z_2_2_3 >= -1
 c77: s_2_0_1_3 - z_2_0_1 - z_2_0_3 >= -1
 c78: s_2_2_1_3 - z_2_1_2 - z_2_2_3 >= -1
 c79: s_2_0_2_3 - z_2_0_2 - z_2_0_3 >= -1
 c80: s_2_1_2_3 - z_2_1_2 - z_2_1_3 >= -1
 c81: x_0_0 + 5 z_0_0_1 + 5 z_0_0_2 + 10 z_0_0_3 >= 20
 c82: x_0_1 - z_0_0_1 + 5 z_0_1_2 + 10 z_0_1_3 >= 15
 c83: x_0_2 - z_0_0_2 - 5 z_0_1_2 + 10 z_0_2_3 >= 10
 c84: x_0_3 - z_0_0_3 - 5 z_0_1_3 - 5 z_0_2_3 >= 0
 c85: x_1_0 + 8 z_1_0_1 + 8 z_1_0_2 + 6 z_1_0_3 >= 22
 c86: x_1_1 - 3 z_1_0_1 + 8 z_1_1_2 + 6 z_1_1_3 >= 14
 c87: x_1_2 - 3 z_1_0_2 - 8 z_1_1_2 + 6 z_1_2_3 >= 6
 c88: x_1_3 - 3 z_1_0_3 - 8 z_1_1_3 - 8 z_1_2_3 >= 0
 c89: x_2_0 + 10 z_2_0_1 + 4 z_2_0_2 + 4 z_2_0_3 >= 18
 c90: x_2_1 - 2 z_2_0_1 + 4 z_2_1_2 + 4 z_2_1_3 >= 8
 c91: x_2_2 - 2 z_2_0_2 - 10 z_2_1_2 + 4 z_2_2_3 >= 4
 c92: x_2_3 - 2 z_2_0_3 - 10 z_2_1_3 - 4 z_2_2_3 >= 0
 c93: x_0_1 - z_0_0_1 >= 0
 c94: x_0_0 + 13 z_0_0_1 >= 13
 c95: x_0_2 - z_0_0_2 >= 0
 c96: x_0_0 + 5 z_0_0_2 >= 5
 c97: x_0_2 - 13 z_0_1_2 >= 0
 c98: x_0_1 + 5 z_0_1_2 >= 5
 c99: x_0_3 - z_0_0_3 >= 0
 c100: x_0_0 + 14 z_0_0_3 >= 14
 c101: x_0_3 - 13 z_0_1_3 >= 0
 c102: x_0_1 + 14 z_0_1_3 >= 14
 c103: x_0_3 - 5 z_0_2_3 >= 0
 c104: x_0_2 + 14 z_0_2_3 >= 14
 c105: x_1_1 - 4 z_1_0_1 >= 0
 c106: x_1_0 + 8 z_1_0_1 >= 8
 c107: x_1_2 - 4 z_1_0_2 >= 0
 c108: x_1_0 + 17 z_1_0_2 >= 17
 c109: x_1_2 - 8 z_1_1_2 >= 0
 c110: x_1_1 + 17 z_1_1_2 >= 17
 c111: x_1_3 - 4 z_1_0_3 >= 0
 c112: x_1_0 + 20 z_1_0_3 >= 20
 c113: x_1_3 - 8 z_1_1_3 >= 0
 c114: x_1_1 + 20 z_1_1_3 >= 20
 c115: x_1_3 - 17 z_1_2_3 >= 0
 c116: x_1_2 + 20 z_1_2_3 >= 20
 c117: x_2_1 - 6 z_2_0_1 >= 0
 c118: x_2_0 + 23 z_2_0_1 >= 23
 c119: x_2_2 - 6 z_2_0_2 >= 0
 c120: x_2_0 + 9 z_2_0_2 >= 9
 c121: x_2_2 - 23 z_2_1_2 >= 0
 c122: x_2_1 + 9 z_2_1_2 >= 9
 c123: x_2_3 - 6 z_2_0_3 >= 0
 c124: x_2_0 + 4 z_2_0_3 >= 4
 c125: x_2_3 - 23 z_2_1_3 >= 0
 c126: x_2_1 + 4 z_2_1_3 >= 4
 c127: x_2_3 - 9 z_2_2_3 >= 0
 c128: x_2_2 + 4 z_2_2_3 >= 4
 c129: cmax - x_0_0 - 15 z_0_0_1 >= 1
 c130: cmax - x_0_1 + 6 z_0_0_1 >= 11
 c131: cmax - x_0_0 - 17 z_0_0_2 >= 1
 c132: cmax - x_0_2 + 6 z_0_0_2 >= 11
 c133: cmax - x_0_0 - 16 z_0_0_3 >= 1
 c134: cmax - x_0_3 + 6 z_0_0_3 >= 16
 c135: cmax - x_0_1 - 17 z_0_1_2 >= 5
 c136: cmax - x_0_2 + 15 z_0_1_2 >= 20
 c137: cmax - x_0_1 - 16 z_0_1_3 >= 5
 c138: cmax - x_0_3 + 15 z_0_1_3 >= 25
 c139: cmax - x_0_2 - 16 z_0_2_3 >= 5
 c140: cmax - x_0_3 + 17 z_0_2_3 >= 27
 c141: cmax - x_1_0 - 23 z_1_0_1 >= 3
 c142: cmax - x_1_1 + 5 z_1_0_1 >= 13
 c143: cmax - x_1_0 - 8 z_1_0_2 >= 3
 c144: cmax - x_1_2 + 5 z_1_0_2 >= 13
 c145: cmax - x_1_0 - 6 z_1_0_3 >= 3
 c146: cmax - x_1_3 + 5 z_1_0_3 >= 11
 c147: cmax - x_1_1 - 8 z_1_1_2 >= 8
 c148: cmax - x_1_2 + 23 z_1_1_2 >= 31
 c149: cmax - x_1_1 - 6 z_1_1_3 >= 8
 c150: cmax - x_1_3 + 23 z_1_1_3 >= 29
 c151: cmax - x_1_2 - 6 z_1_2_3 >= 8
 c152: cmax - x_1_3 + 8 z_1_2_3 >= 14
 c153: cmax - x_2_0 - 10 z_2_0_1 >= 2
 c154: cmax - x_2_1 + 2 z_2_0_1 >= 12
 c155: cmax - x_2_0 - 12 z_2_0_2 >= 2
 c156: cmax - x_2_2 + 2 z_2_0_2 >= 6
 c157: cmax - x_2_0 - 20 z_2_0_3 >= 2
 c158: cmax - x_2_3 + 2 z_2_0_3 >= 6
 c159: cmax - x_2_1 - 12 z_2_1_2 >= 10
 c160: cmax - x_2_2 + 10 z_2_1_2 >= 14
 c161: cmax - x_2_1 - 20 z_2_1_3 >= 10
 c162: cmax - x_2_3 + 10 z_2_1_3 >= 14
 c163: cmax - x_2_2 - 20 z_2_2_3 >= 4
 c164: cmax - x_2_3 + 12 z_2_2_3 >= 16
 c165: cmax - x_0_0 >= 6
 c166: cmax - x_0_1 >= 15
 c167: cmax - x_0_2 >= 17
 c168: cmax - x_0_3 >= 16
 c169: cmax - x_1_0 >= 5
 c170: cmax - x_1_1 >= 23
 c171: cmax - x_1_2 >= 8
 c172: cmax - x_1_3 >= 6
 c173: cmax - x_2_0 >= 2
 c174: cmax - x_2_1 >= 10
 c175: cmax - x_2_2 >= 12
 c176: cmax - x_2_3 >= 20

Bounds
       z_0_0_1 <= 1
       z_0_0_2 <= 1
       z_0_0_3 <= 1
       z_0_1_2 <= 1
       z_0_1_3 <= 1
       z_0_2_3 <= 1
       z_1_0_1 <= 1
       z_1_0_2 <= 1
       z_1_0_3 <= 1
       z_1_1_2 <= 1
       z_1_1_3 <= 1
       z_1_2_3 <= 1
       z_2_0_1 <= 1
       z_2_0_2 <= 1
       z_2_0_3 <= 1
       z_2_1_2 <= 1
       z_2_1_3 <= 1
       z_2_2_3 <= 1
 23 <= cmax
       s_0_2_0_1 <= 1
       s_0_3_0_1 <= 1
       s_0_1_0_2 <= 1
       s_0_3_0_2 <= 1
       s_0_1_0_3 <= 1
       s_0_2_0_3 <= 1
       s_0_0_1_2 <= 1
       s_0_3_1_2 <= 1
       s_0_0_1_3 <= 1
       s_0_2_1_3 <= 1
       s_0_0_2_3 <= 1
       s_0_1_2_3 <= 1
       s_1_2_0_1 <= 1
       s_1_3_0_1 <= 1
       s_1_1_0_2 <= 1
       s_1_3_0_2 <= 1
       s_1_1_0_3 <= 1
       s_1_2_0_3 <= 1
       s_1_0_1_2 <= 1
       s_1_3_1_2 <= 1
       s_1_0_1_3 <= 1
       s_1_2_1_3 <= 1
       s_1_0_2_3 <= 1
       s_1_1_2_3 <= 1
       s_2_2_0_1 <= 1
       s_2_3_0_1 <= 1
       s_2_1_0_2 <= 1
       s_2_3_0_2 <= 1
       s_2_1_0_3 <= 1
       s_2_2_0_3 <= 1
       s_2_0_1_2 <= 1
       s_2_3_1_2 <= 1
       s_2_0_1_3 <= 1
       s_2_2_1_3 <= 1
       s_2_0_2_3 <= 1
       s_2_1_2_3 <= 1
End
