logs/t_ID000M003J004_ZintFalse_minla_fav.txt
CPXPARAM_TimeLimit                               3600
CPXPARAM_Read_DataCheck                          1
Tried aggregator 1 time.
LP Presolve eliminated 31 rows and 24 columns.
Reduced LP has 145 rows, 43 columns, and 494 nonzeros.
Presolve time = 0.00 sec. (0.09 ticks)

Iteration log . . .
Iteration:     1   Dual objective     =            23.000000
